r = [
0,252,30,117,19,42,45,36,86,158,148,77,65,80,343,295,65,233,272,93,305,84,143,209,275,259,0
];
p = [
0,14,19,3,18,20,2,22,29,1,26,27,3,23,14,14,6,20,26,16,29,26,1,2,22,30,0
];
e = [
0,2,6,17,4,6,14,4,9,6,13,4,20,10,6,3,15,18,2,2,20,20,10,19,7,2,0
];
d = [
0,370,49,120,148,62,47,117,115,298,174,104,77,103,375,352,75,303,337,133,334,118,249,348,364,319,382
];
d_bar = [
0,377,59,122,157,72,48,128,130,299,187,118,79,115,382,359,78,313,350,141,349,131,250,349,375,334,382
];
w = [
0,0.285714286,0.6,8.5,0.444444444,0.6,14,0.363636364,0.6,6,1,0.285714286,10,0.833333333,0.857142857,0.428571429,5,1.8,0.153846154,0.25,1.333333333,1.538461538,10,19,0.636363636,0.133333333,0
];
